n = 35;
lu = [|-986, 121
      |-1140, -60
      |-1224, -904
      |-503, 833
      |-211, -122
      |268, 546
      |-127, 1069
      |-907, 998
      |445, 1134
      |372, 782
      |190, 395
      |-229, 380
      |-720, -539
      |812, 880
      |-392, 922
      |-470, -20
      |789, 1205
      |104, 1024
      |-1213, -535
      |353, 1207
      |-658, 800
      |-334, 485
      |-373, 298
      |-176, 800
      |-1076, -258
      |668, 852
      |-13, 854
      |-879, 629
      |-264, 11
      |-393, 1100
      |-539, -498
      |-965, -244
      |306, 551
      |-1159, 1007
      |200, 333|];
